param n := 60;
param c := 3000
param : V : p w :=
   0	  86	 366
   1	  94	 268
   2	  50	 366
   3	  69	 430
   4	  84	 263
   5	  28	 307
   6	 100	 414
   7	  24	 287
   8	  55	 299
   9	  54	 495
  10	  83	 251
  11	  28	 254
  12	  78	 474
  13	   5	 252
  14	  63	 274
  15	  32	 370
  16	  40	 269
  17	  75	 361
  18	  12	 473
  19	  56	 252
  20	  86	 275
  21	  23	 472
  22	  93	 259
  23	  53	 269
  24	   5	 444
  25	  80	 258
  26	   1	 298
  27	   5	 439
  28	  59	 273
  29	  98	 288
  30	  69	 445
  31	  65	 272
  32	  34	 283
  33	  90	 419
  34	  92	 261
  35	  50	 320
  36	   4	 363
  37	  11	 271
  38	  44	 366
  39	  29	 355
  40	  86	 273
  41	  48	 372
  42	  12	 466
  43	  28	 262
  44	  30	 272
  45	  13	 357
  46	   4	 292
  47	  72	 351
  48	  33	 395
  49	  11	 255
  50	  25	 350
  51	  81	 350
  52	  30	 303
  53	  15	 347
  54	  45	 450
  55	  69	 252
  56	  55	 298
  57	  94	 410
  58	  12	 275
  59	  23	 315
;

set E :=
   0	   1
   0	   4
   0	   5
   0	   7
   0	   8
   0	  13
   0	  16
   0	  17
   0	  19
   0	  23
   0	  26
   0	  27
   0	  29
   0	  30
   0	  31
   0	  35
   0	  37
   0	  39
   0	  40
   0	  43
   0	  44
   0	  45
   0	  50
   0	  52
   0	  53
   0	  54
   0	  56
   0	  57
   1	   2
   1	   3
   1	   5
   1	   7
   1	  10
   1	  12
   1	  23
   1	  27
   1	  29
   1	  35
   1	  42
   1	  43
   1	  52
   1	  55
   1	  57
   1	  58
   2	   4
   2	  15
   2	  20
   2	  21
   2	  23
   2	  25
   2	  28
   2	  30
   2	  32
   2	  33
   2	  35
   2	  39
   2	  43
   2	  45
   2	  49
   2	  57
   3	   6
   3	   7
   3	  11
   3	  13
   3	  14
   3	  19
   3	  20
   3	  23
   3	  24
   3	  29
   3	  30
   3	  48
   3	  54
   3	  56
   3	  58
   4	  11
   4	  12
   4	  14
   4	  18
   4	  19
   4	  29
   4	  32
   4	  33
   4	  34
   4	  36
   4	  37
   4	  43
   4	  46
   4	  49
   4	  50
   4	  52
   4	  53
   5	   7
   5	   9
   5	  12
   5	  19
   5	  25
   5	  27
   5	  28
   5	  37
   5	  38
   5	  41
   5	  43
   5	  47
   5	  48
   5	  51
   5	  58
   5	  59
   6	   9
   6	  10
   6	  12
   6	  13
   6	  14
   6	  19
   6	  21
   6	  25
   6	  29
   6	  31
   6	  33
   6	  41
   6	  42
   6	  48
   6	  50
   6	  51
   6	  58
   7	   9
   7	  13
   7	  21
   7	  31
   7	  39
   7	  40
   7	  41
   7	  43
   7	  45
   7	  47
   7	  52
   8	   9
   8	  17
   8	  21
   8	  22
   8	  23
   8	  28
   8	  36
   8	  40
   8	  42
   8	  45
   8	  49
   8	  53
   8	  56
   8	  57
   8	  58
   9	  10
   9	  13
   9	  14
   9	  17
   9	  18
   9	  19
   9	  22
   9	  31
   9	  36
   9	  41
   9	  42
   9	  50
   9	  53
   9	  54
  10	  11
  10	  17
  10	  21
  10	  23
  10	  28
  10	  40
  10	  41
  10	  43
  10	  49
  10	  50
  10	  51
  10	  56
  10	  58
  11	  14
  11	  17
  11	  19
  11	  25
  11	  36
  11	  38
  11	  40
  11	  43
  11	  46
  11	  50
  11	  53
  11	  54
  11	  55
  11	  57
  11	  59
  12	  15
  12	  16
  12	  17
  12	  18
  12	  20
  12	  21
  12	  23
  12	  24
  12	  25
  12	  37
  12	  38
  12	  40
  12	  45
  12	  46
  12	  51
  12	  53
  12	  55
  12	  57
  12	  58
  13	  18
  13	  23
  13	  25
  13	  28
  13	  39
  13	  43
  13	  46
  13	  47
  13	  50
  13	  56
  13	  58
  13	  59
  14	  18
  14	  19
  14	  24
  14	  25
  14	  26
  14	  28
  14	  29
  14	  31
  14	  34
  14	  35
  14	  36
  14	  38
  14	  45
  14	  47
  14	  51
  15	  18
  15	  24
  15	  26
  15	  32
  15	  33
  15	  34
  15	  36
  15	  39
  15	  45
  15	  52
  15	  54
  16	  17
  16	  26
  16	  28
  16	  29
  16	  30
  16	  37
  16	  41
  16	  42
  16	  43
  16	  44
  16	  46
  16	  47
  16	  51
  16	  52
  16	  53
  16	  55
  16	  57
  17	  28
  17	  31
  17	  34
  17	  35
  17	  37
  17	  39
  17	  40
  17	  43
  17	  52
  17	  55
  17	  58
  17	  59
  18	  20
  18	  26
  18	  28
  18	  33
  18	  42
  18	  43
  18	  44
  18	  46
  18	  47
  18	  48
  18	  50
  18	  52
  18	  54
  18	  56
  19	  21
  19	  25
  19	  27
  19	  29
  19	  38
  19	  41
  19	  42
  19	  48
  19	  52
  19	  55
  19	  58
  19	  59
  20	  22
  20	  25
  20	  27
  20	  32
  20	  34
  20	  38
  20	  39
  20	  41
  20	  42
  20	  44
  20	  48
  20	  50
  20	  52
  20	  55
  20	  56
  20	  57
  20	  58
  20	  59
  21	  23
  21	  25
  21	  27
  21	  30
  21	  31
  21	  33
  21	  34
  21	  37
  21	  39
  21	  43
  21	  44
  21	  57
  22	  25
  22	  39
  22	  40
  22	  42
  22	  43
  22	  46
  22	  53
  22	  55
  22	  59
  23	  30
  23	  31
  23	  34
  23	  35
  23	  36
  23	  37
  23	  39
  23	  40
  23	  43
  23	  46
  23	  47
  23	  58
  24	  27
  24	  28
  24	  30
  24	  37
  24	  40
  24	  46
  24	  49
  24	  54
  24	  57
  25	  28
  25	  30
  25	  31
  25	  33
  25	  37
  25	  39
  25	  40
  25	  42
  25	  43
  25	  46
  25	  48
  25	  49
  25	  52
  25	  53
  25	  54
  25	  58
  26	  30
  26	  42
  26	  43
  26	  44
  26	  46
  26	  48
  26	  49
  26	  54
  26	  57
  27	  30
  27	  38
  27	  40
  27	  42
  27	  50
  27	  53
  27	  54
  27	  57
  27	  58
  28	  30
  28	  31
  28	  32
  28	  35
  28	  41
  28	  43
  28	  45
  28	  48
  28	  49
  28	  54
  28	  55
  29	  36
  29	  40
  29	  42
  29	  44
  29	  45
  29	  46
  29	  55
  29	  58
  30	  31
  30	  33
  30	  35
  30	  39
  30	  40
  30	  42
  30	  43
  30	  45
  30	  47
  30	  49
  30	  51
  30	  52
  30	  55
  30	  59
  31	  40
  31	  41
  31	  50
  31	  53
  31	  55
  32	  35
  32	  38
  32	  41
  32	  46
  32	  47
  32	  55
  32	  57
  32	  58
  32	  59
  33	  39
  33	  40
  33	  42
  33	  50
  33	  52
  33	  54
  33	  55
  34	  36
  34	  40
  34	  44
  34	  48
  34	  52
  34	  56
  35	  40
  35	  45
  35	  46
  35	  47
  35	  49
  35	  52
  35	  54
  35	  57
  35	  58
  36	  39
  36	  41
  36	  47
  36	  48
  36	  50
  36	  56
  36	  58
  37	  38
  37	  41
  37	  46
  37	  58
  38	  41
  38	  43
  38	  45
  38	  55
  38	  57
  39	  40
  39	  41
  39	  44
  39	  47
  39	  55
  40	  42
  40	  44
  40	  45
  40	  50
  40	  52
  40	  54
  40	  59
  41	  43
  41	  44
  41	  47
  41	  48
  41	  52
  41	  58
  42	  46
  42	  48
  42	  54
  42	  55
  43	  44
  43	  46
  43	  47
  43	  49
  43	  53
  43	  57
  44	  48
  44	  50
  44	  54
  44	  57
  45	  51
  45	  58
  46	  49
  46	  52
  46	  53
  46	  55
  46	  58
  47	  48
  47	  53
  47	  56
  47	  59
  48	  51
  48	  54
  48	  58
  48	  59
  49	  55
  50	  52
  51	  52
  51	  54
  51	  55
  52	  58
  53	  54
  56	  58
  58	  59
;
